Normalized Data/p10_16_normalized_split0.vrp
NAME:p10_16_NORMALIZED_split
BEST_KNOWN: 0
COMMENT: 0
DIMENSION: 838
CAPACITY: 100
EDGE_WEIGHT_FORMAT: FUNCTION
EDGE_WEIGHT_TYPE: EXACT_2D
NODE_COORD_SECTION
1 0.00000 0.00000
2 44 -3
3 44 -3
4 44 -3
5 44 -3
6 44 -3
7 26 23
8 26 23
9 26 23
10 26 23
11 26 23
12 6 43
13 6 43
14 6 43
15 6 43
16 -33 29
17 -33 29
18 -33 29
19 -33 29
20 -33 29
21 -33 29
22 5 25
23 5 25
24 5 25
25 -44 10
26 -44 10
27 -44 10
28 -44 10
29 -44 10
30 -44 10
31 18 -9
32 18 -9
33 18 -9
34 -7 -1
35 -7 -1
36 -7 -1
37 -7 -1
38 32 -19
39 32 -19
40 32 -19
41 32 -19
42 32 -19
43 32 -19
44 -35 20
45 -35 20
46 -35 20
47 -35 20
48 -35 20
49 -41 -28
50 -41 -28
51 -41 -28
52 -41 -28
53 13 25
54 13 25
55 13 25
56 13 25
57 13 25
58 13 25
59 -10 -16
60 -10 -16
61 -10 -16
62 -10 -16
63 -10 -16
64 -10 -16
65 -46 -3
66 -46 -3
67 -46 -3
68 -46 -3
69 -46 -3
70 -16 39
71 -16 39
72 -16 39
73 -16 39
74 -16 39
75 15 -50
76 15 -50
77 15 -50
78 15 -50
79 15 -50
80 14 20
81 14 20
82 14 20
83 -16 48
84 -16 48
85 -16 48
86 -16 48
87 -16 48
88 -16 48
89 -16 48
90 15 20
91 15 20
92 15 20
93 14 -1
94 14 -1
95 14 -1
96 -6 13
97 -6 13
98 -6 13
99 48 13
100 48 13
101 48 13
102 48 13
103 48 13
104 -15 -10
105 -15 -10
106 -15 -10
107 -15 -10
108 -15 -10
109 39 -4
110 39 -4
111 39 -4
112 39 -4
113 39 -4
114 39 -4
115 39 -4
116 -43 45
117 -43 45
118 -43 45
119 -43 45
120 -43 45
121 19 15
122 19 15
123 43 -5
124 43 -5
125 43 -5
126 43 -5
127 -20 35
128 -20 35
129 -20 35
130 -20 35
131 -20 35
132 -20 35
133 45 44
134 45 44
135 45 44
136 45 44
137 45 44
138 -47 10
139 -47 10
140 -47 10
141 -47 10
142 -21 45
143 -21 45
144 -21 45
145 -21 45
146 -21 45
147 29 -36
148 29 -36
149 29 -36
150 29 -36
151 29 -36
152 -26 -7
153 -26 -7
154 -26 -7
155 -26 -7
156 -37 -8
157 -37 -8
158 -37 -8
159 -37 -8
160 26 -16
161 26 -16
162 26 -16
163 -27 -3
164 -27 -3
165 -27 -3
166 -27 -3
167 -27 -3
168 -27 -3
169 -43 37
170 -43 37
171 -43 37
172 -43 37
173 -43 37
174 45 5
175 45 5
176 45 5
177 45 5
178 45 5
179 45 5
180 45 5
181 -27 -47
182 -27 -47
183 -27 -47
184 -27 -47
185 -39 0
186 -39 0
187 -39 0
188 40 -36
189 40 -36
190 40 -36
191 -42 29
192 -42 29
193 -42 29
194 -42 29
195 0 36
196 0 36
197 0 36
198 0 36
199 -39 20
200 -39 20
201 -39 20
202 -39 20
203 -16 -15
204 24 39
205 24 39
206 24 39
207 16 -22
208 16 -22
209 -10 -36
210 -13 -10
211 -13 -10
212 -13 -10
213 -13 -10
214 44 -30
215 44 -30
216 44 -30
217 44 -30
218 44 -30
219 21 49
220 21 49
221 21 49
222 21 49
223 18 -30
224 18 -30
225 18 -30
226 18 -30
227 18 -30
228 18 -30
229 18 -30
230 -18 26
231 -18 26
232 -18 26
233 25 -38
234 25 -38
235 25 -38
236 25 -38
237 25 -38
238 -40 25
239 -40 25
240 -40 25
241 -40 25
242 -40 25
243 -40 25
244 -31 44
245 -31 44
246 -31 44
247 -31 44
248 -31 44
249 -31 44
250 26 -16
251 26 -16
252 26 -16
253 26 -16
254 26 -16
255 0 -20
256 0 -20
257 0 -20
258 0 -20
259 0 -20
260 0 -20
261 20 37
262 20 37
263 20 37
264 20 37
265 20 37
266 20 37
267 -36 8
268 -36 8
269 -36 8
270 -9 9
271 -9 9
272 -9 9
273 -9 9
274 -9 9
275 -13 38
276 -13 38
277 -13 38
278 -13 38
279 -13 38
280 -3 -16
281 -3 -16
282 -3 -16
283 40 -23
284 40 -23
285 40 -23
286 -12 46
287 -12 46
288 -12 46
289 -12 46
290 -12 46
291 36 26
292 36 26
293 36 26
294 36 26
295 36 26
296 36 26
297 -44 43
298 -44 43
299 -44 43
300 -44 43
301 -24 -49
302 -24 -49
303 -24 -49
304 -24 -49
305 -24 -49
306 -24 -49
307 -11 49
308 -11 49
309 -11 49
310 -11 49
311 -11 49
312 -11 49
313 -30 24
314 -30 24
315 -30 24
316 -30 24
317 14 20
318 47 45
319 47 45
320 47 45
321 47 45
322 -4 -21
323 -35 14
324 -35 14
325 -35 14
326 -35 14
327 8 -13
328 -42 49
329 -42 49
330 -42 49
331 -42 49
332 -42 49
333 -42 49
334 -42 49
335 -11 29
336 -11 29
337 -11 29
338 -11 29
339 15 -15
340 15 -15
341 15 -15
342 17 -15
343 17 -15
344 17 -15
345 -46 -22
346 -39 -37
347 -39 -37
348 -39 -37
349 -39 -37
350 -43 -36
351 -43 -36
352 -43 -36
353 -43 -36
354 -43 -36
355 13 -31
356 13 -31
357 13 -31
358 -21 -18
359 -21 -18
360 -21 -18
361 -21 -18
362 -21 -18
363 -21 -18
364 -21 -18
365 48 47
366 48 47
367 48 47
368 48 47
369 48 47
370 48 47
371 48 47
372 -50 -50
373 -50 -50
374 -50 -50
375 -50 -50
376 -50 -50
377 -36 48
378 -36 48
379 -36 48
380 31 -32
381 31 -32
382 9 -49
383 9 -49
384 9 -49
385 9 -49
386 9 -49
387 -33 -44
388 -33 -44
389 -33 -44
390 -33 -44
391 26 -50
392 26 -50
393 26 -50
394 26 -50
395 -9 16
396 -9 16
397 -9 16
398 -9 16
399 -6 7
400 -6 7
401 -6 7
402 -6 7
403 -6 7
404 13 29
405 13 29
406 13 29
407 0 13
408 0 13
409 0 13
410 0 13
411 0 13
412 27 43
413 27 43
414 27 43
415 27 43
416 27 43
417 17 34
418 17 34
419 40 -1
420 40 -1
421 40 -1
422 40 -1
423 40 -1
424 40 -1
425 20 -24
426 20 -24
427 20 -24
428 18 -24
429 18 -24
430 18 -24
431 18 -24
432 18 -24
433 18 -24
434 48 0
435 48 0
436 48 0
437 48 0
438 48 0
439 48 0
440 30 -50
441 30 -50
442 30 -50
443 30 -50
444 18 14
445 -7 -24
446 -7 -24
447 18 -10
448 18 -10
449 18 -10
450 18 -10
451 18 -10
452 35 -5
453 35 -5
454 9 -7
455 9 -7
456 9 -7
457 9 -7
458 9 -7
459 9 -7
460 40 1
461 40 1
462 40 1
463 40 1
464 35 38
465 35 38
466 35 38
467 35 38
468 35 38
469 35 38
470 7 -1
471 7 -1
472 7 -1
473 7 -1
474 7 -1
475 7 -1
476 7 -1
477 50 12
478 50 12
479 50 12
480 47 -29
481 47 -29
482 47 -29
483 47 -29
484 48 18
485 48 18
486 48 18
487 34 22
488 34 22
489 34 22
490 34 22
491 34 22
492 34 22
493 12 -14
494 12 -14
495 -14 -30
496 -14 -30
497 -14 -30
498 -14 -30
499 -14 -30
500 -14 -30
501 -1 -49
502 -1 -49
503 -1 -49
504 -1 -49
505 -1 -49
506 -1 -49
507 48 -13
508 48 -13
509 48 -13
510 48 -13
511 48 -13
512 -22 31
513 25 15
514 25 15
515 -50 30
516 -50 30
517 -50 30
518 -50 30
519 -50 30
520 -29 -24
521 -29 -24
522 -29 -24
523 -29 -24
524 -29 -24
525 -32 -35
526 -32 -35
527 -32 -35
528 -32 -35
529 41 34
530 41 34
531 25 -33
532 25 -33
533 25 -33
534 25 -33
535 25 -33
536 -8 -38
537 -8 -38
538 -8 -38
539 -8 -38
540 -8 -38
541 -21 22
542 -21 22
543 -21 22
544 -21 22
545 46 47
546 46 47
547 46 47
548 46 47
549 -35 -24
550 -35 -24
551 -35 -24
552 -35 -24
553 0 -14
554 0 -14
555 0 -14
556 0 -14
557 0 -14
558 0 -14
559 -47 30
560 -47 30
561 -15 26
562 -15 26
563 -15 26
564 -15 26
565 -8 1
566 -8 1
567 -8 1
568 -8 1
569 -8 1
570 -8 1
571 25 -1
572 25 -1
573 25 -1
574 25 -1
575 25 -1
576 9 -34
577 9 -34
578 9 -34
579 35 14
580 35 14
581 35 14
582 -36 -9
583 -36 -9
584 -36 -9
585 -36 -9
586 -36 -9
587 17 28
588 17 28
589 -48 5
590 -48 5
591 -48 5
592 -48 5
593 41 -19
594 41 -19
595 41 -19
596 41 -19
597 41 -19
598 31 40
599 31 40
600 31 40
601 31 40
602 -20 12
603 -20 12
604 -20 12
605 -20 12
606 -20 12
607 -20 12
608 -28 -39
609 -28 -39
610 -28 -39
611 -28 -39
612 -28 -39
613 -7 -35
614 -7 -35
615 -7 -35
616 -7 -35
617 -7 -35
618 -43 34
619 -43 34
620 -43 34
621 -43 34
622 -43 34
623 -43 34
624 -43 -6
625 -43 -6
626 -43 -6
627 -43 -6
628 -50 -9
629 -50 -9
630 -50 -9
631 41 6
632 41 6
633 41 6
634 41 6
635 -33 42
636 -33 42
637 -5 -19
638 -5 -19
639 -5 -19
640 -5 -19
641 14 -18
642 14 -18
643 14 -18
644 25 -47
645 25 -47
646 25 -47
647 36 32
648 36 32
649 36 32
650 36 32
651 36 32
652 44 43
653 44 43
654 -46 10
655 -46 10
656 -46 10
657 -46 10
658 -46 10
659 19 -21
660 19 -21
661 19 -21
662 19 -21
663 19 -21
664 -49 -37
665 -49 -37
666 -49 -37
667 -49 -37
668 -49 -37
669 -49 -37
670 -30 27
671 -30 27
672 -30 27
673 -30 27
674 29 42
675 29 42
676 29 42
677 29 42
678 29 42
679 21 29
680 21 29
681 21 29
682 21 29
683 21 29
684 7 40
685 7 40
686 7 40
687 7 40
688 -11 -21
689 -11 -21
690 -11 -21
691 -11 -21
692 -11 -21
693 3 18
694 3 18
695 16 -17
696 16 -17
697 16 -17
698 16 -17
699 -13 -25
700 -13 -25
701 -13 -25
702 -33 -10
703 -33 -10
704 39 5
705 39 5
706 39 5
707 39 5
708 39 5
709 17 6
710 17 6
711 17 6
712 17 6
713 17 6
714 17 6
715 23 42
716 23 42
717 23 42
718 23 42
719 23 42
720 23 42
721 45 14
722 45 14
723 45 14
724 45 14
725 45 14
726 45 14
727 37 27
728 37 27
729 37 27
730 37 27
731 37 27
732 42 -1
733 42 -1
734 42 -1
735 42 -1
736 42 -1
737 35 -41
738 35 -41
739 -12 30
740 -12 30
741 -12 30
742 -12 30
743 -12 30
744 -46 25
745 -46 25
746 5 2
747 5 2
748 5 2
749 32 -40
750 32 -40
751 32 -40
752 32 -40
753 -45 -43
754 -45 -43
755 1 -10
756 1 -10
757 40 4
758 40 4
759 49 20
760 49 20
761 49 20
762 49 20
763 49 20
764 32 38
765 32 38
766 32 38
767 43 -4
768 43 -4
769 43 -4
770 43 -4
771 0 -18
772 0 -18
773 0 -18
774 -47 -35
775 -47 -35
776 -47 -35
777 -47 -35
778 -47 -35
779 -47 -35
780 -47 -35
781 13 -43
782 13 -43
783 13 -43
784 13 -43
785 13 -43
786 3 26
787 3 26
788 3 26
789 -35 -12
790 -35 -12
791 -35 -12
792 -44 24
793 -44 24
794 -44 24
795 -44 24
796 -44 24
797 -44 24
798 -33 26
799 -33 26
800 -33 26
801 -33 26
802 -33 26
803 48 47
804 48 47
805 48 47
806 48 47
807 10 29
808 10 29
809 10 29
810 -49 -29
811 -49 -29
812 -49 -29
813 -49 -29
814 -34 21
815 -34 21
816 -34 21
817 -34 21
818 -34 21
819 50 -19
820 50 -19
821 50 -19
822 50 -19
823 -50 33
824 -50 33
825 -50 33
826 -14 50
827 -14 50
828 -14 50
829 -14 50
830 20 42
831 20 42
832 20 42
833 20 42
834 20 42
835 -46 -28
836 -46 -28
837 -46 -28
838 -46 -28
DEMAND_SECTION
1 0
2 10
3 1
4 1
5 1
6 1
7 10
8 5
9 1
10 1
11 1
12 20
13 10
14 1
15 1
16 10
17 5
18 1
19 1
20 1
21 1
22 20
23 20
24 10
25 20
26 5
27 1
28 1
29 1
30 1
31 20
32 5
33 1
34 20
35 1
36 1
37 1
38 20
39 10
40 1
41 1
42 1
43 1
44 20
45 1
46 1
47 1
48 1
49 20
50 20
51 5
52 1
53 10
54 5
55 1
56 1
57 1
58 1
59 20
60 5
61 1
62 1
63 1
64 1
65 20
66 20
67 1
68 1
69 1
70 20
71 10
72 5
73 1
74 1
75 10
76 1
77 1
78 1
79 1
80 20
81 20
82 10
83 20
84 20
85 5
86 1
87 1
88 1
89 1
90 20
91 10
92 1
93 20
94 20
95 5
96 10
97 1
98 1
99 20
100 10
101 1
102 1
103 1
104 20
105 1
106 1
107 1
108 1
109 20
110 20
111 5
112 1
113 1
114 1
115 1
116 20
117 5
118 1
119 1
120 1
121 20
122 5
123 20
124 10
125 5
126 1
127 20
128 20
129 1
130 1
131 1
132 1
133 20
134 20
135 5
136 1
137 1
138 20
139 10
140 1
141 1
142 10
143 1
144 1
145 1
146 1
147 20
148 10
149 5
150 1
151 1
152 20
153 10
154 1
155 1
156 20
157 10
158 5
159 1
160 10
161 1
162 1
163 20
164 10
165 5
166 1
167 1
168 1
169 10
170 5
171 1
172 1
173 1
174 20
175 10
176 5
177 1
178 1
179 1
180 1
181 20
182 20
183 1
184 1
185 10
186 5
187 1
188 20
189 1
190 1
191 20
192 1
193 1
194 1
195 20
196 5
197 1
198 1
199 20
200 20
201 1
202 1
203 20
204 20
205 5
206 1
207 10
208 5
209 20
210 20
211 5
212 1
213 1
214 10
215 5
216 1
217 1
218 1
219 10
220 5
221 1
222 1
223 20
224 20
225 5
226 1
227 1
228 1
229 1
230 10
231 5
232 1
233 20
234 20
235 1
236 1
237 1
238 20
239 10
240 5
241 1
242 1
243 1
244 20
245 10
246 1
247 1
248 1
249 1
250 20
251 10
252 5
253 1
254 1
255 20
256 10
257 5
258 1
259 1
260 1
261 20
262 20
263 5
264 1
265 1
266 1
267 20
268 1
269 1
270 10
271 1
272 1
273 1
274 1
275 20
276 1
277 1
278 1
279 1
280 20
281 1
282 1
283 20
284 10
285 5
286 20
287 1
288 1
289 1
290 1
291 20
292 20
293 1
294 1
295 1
296 1
297 20
298 10
299 1
300 1
301 20
302 20
303 1
304 1
305 1
306 1
307 20
308 20
309 1
310 1
311 1
312 1
313 10
314 5
315 1
316 1
317 20
318 10
319 5
320 1
321 1
322 20
323 20
324 20
325 1
326 1
327 20
328 20
329 20
330 5
331 1
332 1
333 1
334 1
335 20
336 20
337 1
338 1
339 20
340 1
341 1
342 20
343 20
344 10
345 20
346 20
347 20
348 1
349 1
350 20
351 5
352 1
353 1
354 1
355 20
356 10
357 1
358 20
359 10
360 5
361 1
362 1
363 1
364 1
365 20
366 10
367 5
368 1
369 1
370 1
371 1
372 20
373 10
374 1
375 1
376 1
377 20
378 10
379 1
380 20
381 1
382 20
383 20
384 1
385 1
386 1
387 20
388 20
389 1
390 1
391 10
392 1
393 1
394 1
395 20
396 5
397 1
398 1
399 10
400 5
401 1
402 1
403 1
404 20
405 5
406 1
407 10
408 1
409 1
410 1
411 1
412 20
413 20
414 5
415 1
416 1
417 20
418 20
419 20
420 20
421 1
422 1
423 1
424 1
425 20
426 20
427 10
428 20
429 10
430 5
431 1
432 1
433 1
434 20
435 10
436 1
437 1
438 1
439 1
440 20
441 20
442 5
443 1
444 20
445 10
446 5
447 10
448 1
449 1
450 1
451 1
452 20
453 5
454 20
455 10
456 5
457 1
458 1
459 1
460 20
461 20
462 1
463 1
464 20
465 20
466 1
467 1
468 1
469 1
470 20
471 10
472 5
473 1
474 1
475 1
476 1
477 20
478 10
479 1
480 20
481 1
482 1
483 1
484 20
485 20
486 1
487 20
488 20
489 5
490 1
491 1
492 1
493 20
494 1
495 20
496 10
497 5
498 1
499 1
500 1
501 20
502 20
503 1
504 1
505 1
506 1
507 20
508 1
509 1
510 1
511 1
512 20
513 20
514 1
515 20
516 10
517 1
518 1
519 1
520 20
521 10
522 5
523 1
524 1
525 20
526 20
527 1
528 1
529 20
530 20
531 20
532 1
533 1
534 1
535 1
536 20
537 10
538 1
539 1
540 1
541 20
542 10
543 1
544 1
545 20
546 1
547 1
548 1
549 20
550 20
551 5
552 1
553 10
554 5
555 1
556 1
557 1
558 1
559 20
560 5
561 20
562 10
563 1
564 1
565 20
566 10
567 1
568 1
569 1
570 1
571 20
572 20
573 5
574 1
575 1
576 20
577 20
578 1
579 20
580 20
581 5
582 10
583 1
584 1
585 1
586 1
587 10
588 5
589 20
590 1
591 1
592 1
593 10
594 1
595 1
596 1
597 1
598 20
599 5
600 1
601 1
602 10
603 5
604 1
605 1
606 1
607 1
608 20
609 20
610 5
611 1
612 1
613 20
614 10
615 1
616 1
617 1
618 20
619 10
620 1
621 1
622 1
623 1
624 10
625 5
626 1
627 1
628 10
629 5
630 1
631 20
632 10
633 1
634 1
635 20
636 1
637 20
638 20
639 5
640 1
641 20
642 10
643 1
644 20
645 5
646 1
647 20
648 10
649 5
650 1
651 1
652 20
653 1
654 20
655 20
656 1
657 1
658 1
659 20
660 20
661 5
662 1
663 1
664 20
665 10
666 5
667 1
668 1
669 1
670 20
671 10
672 1
673 1
674 20
675 10
676 5
677 1
678 1
679 20
680 10
681 1
682 1
683 1
684 20
685 5
686 1
687 1
688 10
689 1
690 1
691 1
692 1
693 20
694 1
695 20
696 20
697 1
698 1
699 20
700 1
701 1
702 20
703 5
704 10
705 5
706 1
707 1
708 1
709 20
710 20
711 5
712 1
713 1
714 1
715 20
716 20
717 1
718 1
719 1
720 1
721 20
722 20
723 1
724 1
725 1
726 1
727 20
728 1
729 1
730 1
731 1
732 10
733 1
734 1
735 1
736 1
737 20
738 5
739 20
740 20
741 5
742 1
743 1
744 20
745 20
746 10
747 5
748 1
749 20
750 1
751 1
752 1
753 20
754 20
755 20
756 1
757 10
758 5
759 20
760 1
761 1
762 1
763 1
764 20
765 20
766 10
767 20
768 20
769 1
770 1
771 10
772 5
773 1
774 20
775 10
776 5
777 1
778 1
779 1
780 1
781 20
782 5
783 1
784 1
785 1
786 20
787 20
788 5
789 20
790 1
791 1
792 20
793 20
794 5
795 1
796 1
797 1
798 20
799 20
800 1
801 1
802 1
803 10
804 1
805 1
806 1
807 20
808 1
809 1
810 10
811 5
812 1
813 1
814 10
815 1
816 1
817 1
818 1
819 20
820 20
821 5
822 1
823 20
824 10
825 1
826 20
827 10
828 1
829 1
830 20
831 20
832 1
833 1
834 1
835 20
836 20
837 1
838 1
DEPOT_SECTION
1
-1
EOF