Normalized Data/p10_16_normalized_split0.sol
837 -10 9 7 8 6 646 650 647 649 648 465 463 466 467 468 464 -22 23 21 786 785 787 407 410 408 -33 34 36 35 564 568 569 566 567 565 -47 46 45 44 43 198 199 237 817 815 816 813 814 -51 49 834 835 837 836 810 812 809 811 344 -56 52 55 57 53 54 264 261 260 416 417 -61 59 62 58 60 63 637 639 636 638 321 -71 69 70 128 129 130 131 127 126 511 231 -76 78 74 75 77 390 392 393 391 442 440 441 439 644 643 645 -89 90 81 79 80 316 -91 682 681 679 680 678 586 587 405 403 404 808 806 807 -93 94 92 710 713 708 709 746 747 -97 96 742 741 740 73 72 143 142 145 141 144 86 85 87 88 84 82 83 274 278 277 275 276 -106 107 103 105 104 152 154 153 151 164 163 162 167 166 165 -111 113 112 114 125 122 124 769 766 768 767 3 4 1 5 2 732 731 733 735 734 -117 119 118 115 116 327 333 328 331 330 332 329 635 634 401 -121 294 293 295 290 291 292 728 729 726 727 730 488 486 489 -123 509 506 510 507 508 820 821 818 819 593 592 594 595 596 161 253 -158 156 155 157 583 582 585 581 584 789 790 788 701 702 -159 37 42 38 41 40 39 284 282 283 571 574 -160 251 479 481 482 480 217 215 214 216 213 187 188 189 737 736 749 149 150 531 532 -180 181 182 183 302 301 305 304 300 303 495 498 497 689 690 -185 186 184 67 68 66 65 64 628 629 627 626 624 623 625 -200 201 517 515 514 516 518 823 822 824 558 559 239 242 -204 205 675 674 676 673 677 415 413 414 412 411 719 718 716 717 263 262 -206 207 427 428 430 426 425 424 -209 212 211 210 202 691 687 688 700 699 698 445 444 -225 227 224 223 226 228 222 232 233 235 236 234 431 429 432 -240 241 238 743 744 792 793 796 794 795 791 -247 244 245 248 243 246 377 378 376 297 298 299 296 271 273 270 -252 250 249 659 658 661 660 662 340 338 339 -265 203 599 598 597 600 765 764 763 -266 267 268 26 28 27 25 29 24 324 325 322 323 602 -272 269 540 542 541 543 229 230 560 394 397 396 -280 281 279 256 257 259 254 258 255 770 772 771 553 552 556 557 554 555 -287 289 285 286 288 826 825 827 828 309 310 306 311 307 308 -337 336 334 335 738 739 562 563 561 395 -351 350 349 374 372 373 371 375 753 752 -353 352 664 666 668 667 663 665 775 779 778 774 777 773 776 48 551 -356 355 354 780 781 782 784 783 576 575 577 -358 526 524 527 525 608 607 610 611 609 -359 522 521 50 345 346 348 347 388 389 387 386 -360 357 362 361 363 520 523 519 548 550 549 -379 380 748 751 750 147 148 146 530 533 534 -385 381 383 382 384 504 502 500 501 503 505 616 614 615 613 -402 398 399 400 95 693 692 120 443 470 474 472 -406 409 197 194 196 195 11 13 12 14 684 685 683 686 -418 419 423 421 422 459 461 462 460 757 756 -420 433 434 436 435 438 437 174 175 173 178 177 179 176 630 704 706 -451 452 110 108 109 570 572 573 -456 458 457 343 342 341 448 450 446 449 447 31 32 30 471 -473 469 475 453 455 454 326 755 754 -492 493 695 694 697 696 641 640 642 -496 499 494 208 535 539 537 538 536 612 -512 513 490 487 491 578 579 580 711 712 745 -528 529 132 133 651 -547 545 544 546 366 805 368 364 369 804 370 365 367 803 802 320 318 319 317 135 134 136 652 -589 591 588 590 137 139 140 138 654 653 656 657 655 -601 314 313 315 312 801 797 799 798 800 670 669 -604 606 603 605 191 193 190 192 622 620 619 621 618 617 168 169 171 170 172 19 16 15 17 18 20 671 672 -631 632 633 476 477 478 102 101 100 98 99 725 721 -703 705 707 722 724 723 720 485 484 483 758 762 759 761 760 -714 715 219 221 220 218 832 830 829 833 831 0 





OBJ=
5755.715
BEST_KNOWN=
0.000